p cnf 20 43
c p show 1 2 3 4 5 6 7
c p weight  1 0.173133
c p weight -1 0.826867
c p weight  2 0.683953
c p weight -2 0.316047
c p weight  3 0.439569
c p weight -3 0.560431
c p weight  4 0.400847
c p weight -4 0.599153
c p weight  5 0.723601
c p weight -5 0.276399
c p weight  6 0.970541
c p weight -6 0.029459
c p weight  7 0.084515
c p weight -7 0.915485
8 1 0
-8 -1 0
-9 6 0
-9 8 0
9 -6 -8 0
10 -9 0
10 -4 0
-10 9 4 0
-11 -7 0
-11 -2 0
11 7 2 0
-12 -11 0
-12 -3 0
12 11 3 0
13 -9 0
13 -11 0
-13 9 11 0
14 13 0
14 10 0
-14 -13 -10 0
-15 -14 0
-15 -5 0
15 14 5 0
-16 -15 0
-16 -8 0
16 15 8 0
17 15 0
-17 -15 0
-18 12 17 0
-18 -12 -17 0
18 -12 17 0
18 12 -17 0
18 0
-19 12 17 0
-19 -12 -17 0
19 -12 17 0
19 12 -17 0
19 0
-20 12 17 0
-20 -12 -17 0
20 -12 17 0
20 12 -17 0
20 0
